(declare-const a Real)
(declare-const b Real)
(declare-const c Real)
(assert (= (* a b c) 1))
(assert (> a 0))
(assert (> b 0))
(assert (> c 0))
 (pow (+ (* 695192 a) (* 901016 b)) 4)) (* -1769472 (pow a (pow 3 -1)) (pow b (/ 11 3))) (* -884736 (pow a (/ 10 3)) (pow b (/ 2 3))) (* 277488 (pow a 2) (pow b 2)) (* 895904 b (pow a 3)) (* 3077024 a (pow b 3))) 0)))
(check-sat)
(get-model)
(exit)